c A SAT instance generated from a 5-CNF formula that had 10 clauses and 750 variables
p cnf 750 10
-375 -653 -228 -383 -65 0
-688 -47 44 330 -48 0
-694 262 600 133 660 0
54 -280 407 531 -434 0
-497 -722 661 151 332 0
487 227 -501 -32 517 0
-327 626 232 48 590 0
-180 585 -496 347 666 0
95 708 321 117 -191 0
-241 -709 -117 -74 -524 0
